; benchmark generated from python API
(set-info :status unknown)
(declare-fun x_epoch () Int)
(declare-fun y_epoch () Int)
(declare-fun x_shift_period_58823_epoch () Int)
(declare-fun x_year () Int)
(declare-fun x_month () Int)
(declare-fun x_day () Int)
(declare-fun x_shift_period_58823_year () Int)
(declare-fun x_shift_period_58823_month () Int)
(declare-fun x_shift_period_58823_day () Int)
(declare-fun y_shift_period_66319_epoch () Int)
(declare-fun y_year () Int)
(declare-fun y_month () Int)
(declare-fun y_day () Int)
(declare-fun y_shift_period_66319_year () Int)
(declare-fun y_shift_period_66319_month () Int)
(declare-fun y_shift_period_66319_day () Int)
(assert
 (>= x_epoch (- 36584)))
(assert
 (<= x_epoch 36829))
(assert
 (>= y_epoch (- 36584)))
(assert
 (<= y_epoch 36829))
(assert
 (= x_epoch 7275))
(assert
 (= y_epoch 6910))
(assert
 (>= x_shift_period_58823_epoch (- 36584)))
(assert
 (<= x_shift_period_58823_epoch 36829))
(assert
 (let (($x608 (<= x_year 2100)))
 (let (($x150 (>= x_year 1900)))
 (let (($x632 (= x_month 11)))
 (let (($x221 (= x_month 9)))
 (let (($x292 (= x_month 6)))
 (let (($x735 (= x_month 4)))
 (let ((?x100 (ite (or $x735 $x292 $x221 $x632) 30 31)))
 (let (($x345 (= (mod x_year 4) 0)))
 (let (($x461 (= (mod x_year 100) 0)))
 (let (($x701 (= (mod x_year 400) 0)))
 (let (($x231 (ite $x701 true (ite $x461 false $x345))))
 (let (($x107 (= x_month 2)))
 (let ((?x242 (ite $x107 (ite $x231 29 28) ?x100)))
 (let (($x496 (>= x_day 1)))
 (let (($x321 (<= x_month 12)))
 (let (($x471 (>= x_month 1)))
 (and $x471 $x321 $x496 (<= x_day ?x242) $x150 $x608))))))))))))))))))
(assert
 (let (($x29 (or (and (= (mod 2000 4) 0) (and (distinct (mod 2000 100) 0) true)) (= (mod 2000 400) 0))))
 (let ((?x36 (ite (= 3 2) (ite $x29 31 31) (ite (= 3 1) (ite $x29 0 0) 0))))
 (let ((?x40 (ite $x29 60 59)))
 (let ((?x41 (ite (= 3 3) ?x40 ?x36)))
 (let ((?x46 (ite (= 3 4) (ite $x29 91 90) ?x41)))
 (let ((?x52 (ite (= 3 5) (ite $x29 121 120) ?x46)))
 (let ((?x58 (ite (= 3 6) (ite $x29 152 151) ?x52)))
 (let ((?x64 (ite (= 3 7) (ite $x29 182 181) ?x58)))
 (let ((?x70 (ite (= 3 8) (ite $x29 213 212) ?x64)))
 (let ((?x76 (ite (= 3 9) (ite $x29 244 243) ?x70)))
 (let ((?x82 (ite (= 3 10) (ite $x29 274 273) ?x76)))
 (let ((?x88 (ite (= 3 11) (ite $x29 305 304) ?x82)))
 (let ((?x16 (- (+ (* 365 (- 2000 1)) (div (- 2000 1) 4)) (div (- 2000 1) 100))))
 (let ((?x95 (+ (+ ?x16 (div (- 2000 1) 400)) (ite (= 3 12) (ite $x29 335 334) ?x88))))
 (let ((?x97 (+ ?x95 (- 1 1))))
 (let (($x345 (= (mod x_year 4) 0)))
 (let (($x461 (= (mod x_year 100) 0)))
 (let (($x701 (= (mod x_year 400) 0)))
 (let (($x231 (ite $x701 true (ite $x461 false $x345))))
 (let (($x142 (= 2 x_month)))
 (let ((?x395 (ite $x142 (ite $x231 31 31) (ite (= 1 x_month) (ite $x231 0 0) 0))))
 (let (($x270 (= 3 x_month)))
 (let (($x585 (= 4 x_month)))
 (let ((?x499 (ite $x585 (ite $x231 91 90) (ite $x270 (ite $x231 60 59) ?x395))))
 (let (($x510 (= 5 x_month)))
 (let (($x460 (= 6 x_month)))
 (let ((?x2018 (ite $x460 (ite $x231 152 151) (ite $x510 (ite $x231 121 120) ?x499))))
 (let (($x112 (= 7 x_month)))
 (let (($x601 (= 8 x_month)))
 (let ((?x606 (ite $x601 (ite $x231 213 212) (ite $x112 (ite $x231 182 181) ?x2018))))
 (let (($x659 (= 9 x_month)))
 (let (($x2109 (= 10 x_month)))
 (let ((?x3347 (ite $x2109 (ite $x231 274 273) (ite $x659 (ite $x231 244 243) ?x606))))
 (let (($x1089 (= 11 x_month)))
 (let (($x645 (= 12 x_month)))
 (let ((?x728 (ite $x645 (ite $x231 335 334) (ite $x1089 (ite $x231 305 304) ?x3347))))
 (let ((?x579 (- (+ (* 365 (- x_year 1)) (div (- x_year 1) 4)) (div (- x_year 1) 100))))
 (let ((?x2874 (+ (+ (+ ?x579 (div (- x_year 1) 400)) ?x728) (- x_day 1))))
 (= x_epoch (- ?x2874 ?x97)))))))))))))))))))))))))))))))))))))))))
(assert
 (let (($x3689 (<= x_shift_period_58823_year 2100)))
 (let (($x2896 (>= x_shift_period_58823_year 1900)))
 (let (($x2972 (= x_shift_period_58823_month 11)))
 (let (($x2038 (= x_shift_period_58823_month 9)))
 (let (($x794 (= x_shift_period_58823_month 6)))
 (let (($x2337 (= x_shift_period_58823_month 4)))
 (let ((?x3183 (ite (or $x2337 $x794 $x2038 $x2972) 30 31)))
 (let (($x3559 (= (mod x_shift_period_58823_year 4) 0)))
 (let (($x1303 (= (mod x_shift_period_58823_year 100) 0)))
 (let (($x658 (= (mod x_shift_period_58823_year 400) 0)))
 (let (($x1300 (ite $x658 true (ite $x1303 false $x3559))))
 (let (($x1144 (= x_shift_period_58823_month 2)))
 (let (($x3090 (>= x_shift_period_58823_day 1)))
 (let (($x2185 (<= x_shift_period_58823_month 12)))
 (let (($x630 (>= x_shift_period_58823_month 1)))
 (and $x630 $x2185 $x3090 (<= x_shift_period_58823_day (ite $x1144 (ite $x1300 29 28) ?x3183)) $x2896 $x3689)))))))))))))))))
(assert
 (let (($x29 (or (and (= (mod 2000 4) 0) (and (distinct (mod 2000 100) 0) true)) (= (mod 2000 400) 0))))
 (let ((?x36 (ite (= 3 2) (ite $x29 31 31) (ite (= 3 1) (ite $x29 0 0) 0))))
 (let ((?x40 (ite $x29 60 59)))
 (let ((?x41 (ite (= 3 3) ?x40 ?x36)))
 (let ((?x46 (ite (= 3 4) (ite $x29 91 90) ?x41)))
 (let ((?x52 (ite (= 3 5) (ite $x29 121 120) ?x46)))
 (let ((?x58 (ite (= 3 6) (ite $x29 152 151) ?x52)))
 (let ((?x64 (ite (= 3 7) (ite $x29 182 181) ?x58)))
 (let ((?x70 (ite (= 3 8) (ite $x29 213 212) ?x64)))
 (let ((?x76 (ite (= 3 9) (ite $x29 244 243) ?x70)))
 (let ((?x82 (ite (= 3 10) (ite $x29 274 273) ?x76)))
 (let ((?x88 (ite (= 3 11) (ite $x29 305 304) ?x82)))
 (let ((?x16 (- (+ (* 365 (- 2000 1)) (div (- 2000 1) 4)) (div (- 2000 1) 100))))
 (let ((?x95 (+ (+ ?x16 (div (- 2000 1) 400)) (ite (= 3 12) (ite $x29 335 334) ?x88))))
 (let ((?x97 (+ ?x95 (- 1 1))))
 (let (($x3559 (= (mod x_shift_period_58823_year 4) 0)))
 (let (($x1303 (= (mod x_shift_period_58823_year 100) 0)))
 (let (($x658 (= (mod x_shift_period_58823_year 400) 0)))
 (let (($x1300 (ite $x658 true (ite $x1303 false $x3559))))
 (let ((?x2719 (ite (= 2 x_shift_period_58823_month) (ite $x1300 31 31) (ite (= 1 x_shift_period_58823_month) (ite $x1300 0 0) 0))))
 (let ((?x172 (ite (= 4 x_shift_period_58823_month) (ite $x1300 91 90) (ite (= 3 x_shift_period_58823_month) (ite $x1300 60 59) ?x2719))))
 (let ((?x3314 (ite (= 6 x_shift_period_58823_month) (ite $x1300 152 151) (ite (= 5 x_shift_period_58823_month) (ite $x1300 121 120) ?x172))))
 (let ((?x2436 (ite (= 8 x_shift_period_58823_month) (ite $x1300 213 212) (ite (= 7 x_shift_period_58823_month) (ite $x1300 182 181) ?x3314))))
 (let ((?x888 (ite (= 10 x_shift_period_58823_month) (ite $x1300 274 273) (ite (= 9 x_shift_period_58823_month) (ite $x1300 244 243) ?x2436))))
 (let ((?x2114 (ite (= 12 x_shift_period_58823_month) (ite $x1300 335 334) (ite (= 11 x_shift_period_58823_month) (ite $x1300 305 304) ?x888))))
 (let ((?x2621 (+ (* 365 (- x_shift_period_58823_year 1)) (div (- x_shift_period_58823_year 1) 4))))
 (let ((?x3253 (+ (- ?x2621 (div (- x_shift_period_58823_year 1) 100)) (div (- x_shift_period_58823_year 1) 400))))
 (= x_shift_period_58823_epoch (- (+ (+ ?x3253 ?x2114) (- x_shift_period_58823_day 1)) ?x97))))))))))))))))))))))))))))))
(assert
 (let ((?x385 (* 12 x_year)))
 (let ((?x2832 (+ ?x385 (- x_month 1))))
 (let ((?x2390 (+ ?x2832 1)))
 (let ((?x577 (div ?x2390 12)))
 (= x_shift_period_58823_year ?x577))))))
(assert
 (let ((?x1741 (+ (mod (+ (+ (* 12 x_year) (- x_month 1)) 1) 12) 1)))
 (= x_shift_period_58823_month ?x1741)))
(assert
 (let ((?x1741 (+ (mod (+ (+ (* 12 x_year) (- x_month 1)) 1) 12) 1)))
 (let ((?x2934 (ite (or (= ?x1741 4) (= ?x1741 6) (= ?x1741 9) (= ?x1741 11)) 30 31)))
 (let ((?x385 (* 12 x_year)))
 (let ((?x2832 (+ ?x385 (- x_month 1))))
 (let ((?x2390 (+ ?x2832 1)))
 (let ((?x577 (div ?x2390 12)))
 (let (($x2568 (ite (= (mod ?x577 400) 0) true (ite (= (mod ?x577 100) 0) false (= (mod ?x577 4) 0)))))
 (let ((?x2911 (ite (= ?x1741 2) (ite $x2568 29 28) ?x2934)))
 (let ((?x861 (ite (<= x_day ?x2911) x_day ?x2911)))
 (let (($x632 (= x_month 11)))
 (let (($x221 (= x_month 9)))
 (let (($x292 (= x_month 6)))
 (let (($x735 (= x_month 4)))
 (let ((?x100 (ite (or $x735 $x292 $x221 $x632) 30 31)))
 (let (($x345 (= (mod x_year 4) 0)))
 (let (($x461 (= (mod x_year 100) 0)))
 (let (($x701 (= (mod x_year 400) 0)))
 (let (($x231 (ite $x701 true (ite $x461 false $x345))))
 (let (($x107 (= x_month 2)))
 (let ((?x242 (ite $x107 (ite $x231 29 28) ?x100)))
 (let (($x546 (= x_day ?x242)))
 (= x_shift_period_58823_day (ite false (ite $x546 ?x2911 ?x861) ?x861))))))))))))))))))))))))
(assert
 (= x_shift_period_58823_epoch 7304))
(assert
 (>= y_shift_period_66319_epoch (- 36584)))
(assert
 (<= y_shift_period_66319_epoch 36829))
(assert
 (let (($x3231 (<= y_year 2100)))
 (let (($x1721 (>= y_year 1900)))
 (let (($x1817 (= y_month 11)))
 (let (($x3022 (= y_month 9)))
 (let (($x1088 (= y_month 6)))
 (let (($x3111 (= y_month 4)))
 (let ((?x239 (ite (or $x3111 $x1088 $x3022 $x1817) 30 31)))
 (let (($x1992 (= (mod y_year 4) 0)))
 (let (($x2899 (= (mod y_year 100) 0)))
 (let (($x2469 (= (mod y_year 400) 0)))
 (let (($x2281 (ite $x2469 true (ite $x2899 false $x1992))))
 (let (($x1564 (= y_month 2)))
 (let ((?x3228 (ite $x1564 (ite $x2281 29 28) ?x239)))
 (let (($x1432 (>= y_day 1)))
 (let (($x2360 (<= y_month 12)))
 (let (($x2566 (>= y_month 1)))
 (and $x2566 $x2360 $x1432 (<= y_day ?x3228) $x1721 $x3231))))))))))))))))))
(assert
 (let (($x29 (or (and (= (mod 2000 4) 0) (and (distinct (mod 2000 100) 0) true)) (= (mod 2000 400) 0))))
 (let ((?x36 (ite (= 3 2) (ite $x29 31 31) (ite (= 3 1) (ite $x29 0 0) 0))))
 (let ((?x40 (ite $x29 60 59)))
 (let ((?x41 (ite (= 3 3) ?x40 ?x36)))
 (let ((?x46 (ite (= 3 4) (ite $x29 91 90) ?x41)))
 (let ((?x52 (ite (= 3 5) (ite $x29 121 120) ?x46)))
 (let ((?x58 (ite (= 3 6) (ite $x29 152 151) ?x52)))
 (let ((?x64 (ite (= 3 7) (ite $x29 182 181) ?x58)))
 (let ((?x70 (ite (= 3 8) (ite $x29 213 212) ?x64)))
 (let ((?x76 (ite (= 3 9) (ite $x29 244 243) ?x70)))
 (let ((?x82 (ite (= 3 10) (ite $x29 274 273) ?x76)))
 (let ((?x88 (ite (= 3 11) (ite $x29 305 304) ?x82)))
 (let ((?x16 (- (+ (* 365 (- 2000 1)) (div (- 2000 1) 4)) (div (- 2000 1) 100))))
 (let ((?x95 (+ (+ ?x16 (div (- 2000 1) 400)) (ite (= 3 12) (ite $x29 335 334) ?x88))))
 (let ((?x97 (+ ?x95 (- 1 1))))
 (let (($x1992 (= (mod y_year 4) 0)))
 (let (($x2899 (= (mod y_year 100) 0)))
 (let (($x2469 (= (mod y_year 400) 0)))
 (let (($x2281 (ite $x2469 true (ite $x2899 false $x1992))))
 (let ((?x2030 (ite (= 2 y_month) (ite $x2281 31 31) (ite (= 1 y_month) (ite $x2281 0 0) 0))))
 (let ((?x966 (ite (= 4 y_month) (ite $x2281 91 90) (ite (= 3 y_month) (ite $x2281 60 59) ?x2030))))
 (let ((?x2506 (ite (= 6 y_month) (ite $x2281 152 151) (ite (= 5 y_month) (ite $x2281 121 120) ?x966))))
 (let ((?x2835 (ite (= 8 y_month) (ite $x2281 213 212) (ite (= 7 y_month) (ite $x2281 182 181) ?x2506))))
 (let ((?x1905 (ite (= 10 y_month) (ite $x2281 274 273) (ite (= 9 y_month) (ite $x2281 244 243) ?x2835))))
 (let ((?x3306 (ite (= 12 y_month) (ite $x2281 335 334) (ite (= 11 y_month) (ite $x2281 305 304) ?x1905))))
 (let ((?x2928 (- (+ (* 365 (- y_year 1)) (div (- y_year 1) 4)) (div (- y_year 1) 100))))
 (let ((?x269 (+ (+ (+ ?x2928 (div (- y_year 1) 400)) ?x3306) (- y_day 1))))
 (= y_epoch (- ?x269 ?x97))))))))))))))))))))))))))))))
(assert
 (let (($x2580 (<= y_shift_period_66319_year 2100)))
 (let (($x980 (>= y_shift_period_66319_year 1900)))
 (let (($x2697 (= y_shift_period_66319_month 11)))
 (let (($x2562 (= y_shift_period_66319_month 9)))
 (let (($x2195 (= y_shift_period_66319_month 6)))
 (let (($x326 (= y_shift_period_66319_month 4)))
 (let ((?x2841 (ite (or $x326 $x2195 $x2562 $x2697) 30 31)))
 (let (($x1071 (= (mod y_shift_period_66319_year 4) 0)))
 (let (($x384 (= (mod y_shift_period_66319_year 100) 0)))
 (let (($x2581 (= (mod y_shift_period_66319_year 400) 0)))
 (let (($x1351 (ite $x2581 true (ite $x384 false $x1071))))
 (let (($x1993 (= y_shift_period_66319_month 2)))
 (let (($x2340 (>= y_shift_period_66319_day 1)))
 (let (($x1561 (<= y_shift_period_66319_month 12)))
 (let (($x1180 (>= y_shift_period_66319_month 1)))
 (and $x1180 $x1561 $x2340 (<= y_shift_period_66319_day (ite $x1993 (ite $x1351 29 28) ?x2841)) $x980 $x2580)))))))))))))))))
(assert
 (let (($x29 (or (and (= (mod 2000 4) 0) (and (distinct (mod 2000 100) 0) true)) (= (mod 2000 400) 0))))
 (let ((?x36 (ite (= 3 2) (ite $x29 31 31) (ite (= 3 1) (ite $x29 0 0) 0))))
 (let ((?x40 (ite $x29 60 59)))
 (let ((?x41 (ite (= 3 3) ?x40 ?x36)))
 (let ((?x46 (ite (= 3 4) (ite $x29 91 90) ?x41)))
 (let ((?x52 (ite (= 3 5) (ite $x29 121 120) ?x46)))
 (let ((?x58 (ite (= 3 6) (ite $x29 152 151) ?x52)))
 (let ((?x64 (ite (= 3 7) (ite $x29 182 181) ?x58)))
 (let ((?x70 (ite (= 3 8) (ite $x29 213 212) ?x64)))
 (let ((?x76 (ite (= 3 9) (ite $x29 244 243) ?x70)))
 (let ((?x82 (ite (= 3 10) (ite $x29 274 273) ?x76)))
 (let ((?x88 (ite (= 3 11) (ite $x29 305 304) ?x82)))
 (let ((?x16 (- (+ (* 365 (- 2000 1)) (div (- 2000 1) 4)) (div (- 2000 1) 100))))
 (let ((?x95 (+ (+ ?x16 (div (- 2000 1) 400)) (ite (= 3 12) (ite $x29 335 334) ?x88))))
 (let ((?x97 (+ ?x95 (- 1 1))))
 (let (($x1071 (= (mod y_shift_period_66319_year 4) 0)))
 (let (($x384 (= (mod y_shift_period_66319_year 100) 0)))
 (let (($x2581 (= (mod y_shift_period_66319_year 400) 0)))
 (let (($x1351 (ite $x2581 true (ite $x384 false $x1071))))
 (let ((?x3141 (ite (= 2 y_shift_period_66319_month) (ite $x1351 31 31) (ite (= 1 y_shift_period_66319_month) (ite $x1351 0 0) 0))))
 (let ((?x1111 (ite (= 4 y_shift_period_66319_month) (ite $x1351 91 90) (ite (= 3 y_shift_period_66319_month) (ite $x1351 60 59) ?x3141))))
 (let ((?x2196 (ite (= 6 y_shift_period_66319_month) (ite $x1351 152 151) (ite (= 5 y_shift_period_66319_month) (ite $x1351 121 120) ?x1111))))
 (let ((?x2307 (ite (= 8 y_shift_period_66319_month) (ite $x1351 213 212) (ite (= 7 y_shift_period_66319_month) (ite $x1351 182 181) ?x2196))))
 (let ((?x3163 (ite (= 10 y_shift_period_66319_month) (ite $x1351 274 273) (ite (= 9 y_shift_period_66319_month) (ite $x1351 244 243) ?x2307))))
 (let ((?x3295 (ite (= 12 y_shift_period_66319_month) (ite $x1351 335 334) (ite (= 11 y_shift_period_66319_month) (ite $x1351 305 304) ?x3163))))
 (let ((?x3318 (+ (* 365 (- y_shift_period_66319_year 1)) (div (- y_shift_period_66319_year 1) 4))))
 (let ((?x398 (+ (- ?x3318 (div (- y_shift_period_66319_year 1) 100)) (div (- y_shift_period_66319_year 1) 400))))
 (= y_shift_period_66319_epoch (- (+ (+ ?x398 ?x3295) (- y_shift_period_66319_day 1)) ?x97))))))))))))))))))))))))))))))
(assert
 (let ((?x1738 (+ (+ (* 12 y_year) (- y_month 1)) 1)))
 (let ((?x271 (div ?x1738 12)))
 (= y_shift_period_66319_year ?x271))))
(assert
 (let ((?x2856 (+ (mod (+ (+ (* 12 y_year) (- y_month 1)) 1) 12) 1)))
 (= y_shift_period_66319_month ?x2856)))
(assert
 (let ((?x2856 (+ (mod (+ (+ (* 12 y_year) (- y_month 1)) 1) 12) 1)))
 (let ((?x2866 (ite (or (= ?x2856 4) (= ?x2856 6) (= ?x2856 9) (= ?x2856 11)) 30 31)))
 (let ((?x1738 (+ (+ (* 12 y_year) (- y_month 1)) 1)))
 (let ((?x271 (div ?x1738 12)))
 (let (($x307 (ite (= (mod ?x271 400) 0) true (ite (= (mod ?x271 100) 0) false (= (mod ?x271 4) 0)))))
 (let ((?x3232 (ite (= ?x2856 2) (ite $x307 29 28) ?x2866)))
 (let ((?x1473 (ite (<= y_day ?x3232) y_day ?x3232)))
 (let (($x1817 (= y_month 11)))
 (let (($x3022 (= y_month 9)))
 (let (($x1088 (= y_month 6)))
 (let (($x3111 (= y_month 4)))
 (let ((?x239 (ite (or $x3111 $x1088 $x3022 $x1817) 30 31)))
 (let (($x1992 (= (mod y_year 4) 0)))
 (let (($x2899 (= (mod y_year 100) 0)))
 (let (($x2469 (= (mod y_year 400) 0)))
 (let (($x2281 (ite $x2469 true (ite $x2899 false $x1992))))
 (let (($x1564 (= y_month 2)))
 (let ((?x3228 (ite $x1564 (ite $x2281 29 28) ?x239)))
 (= y_shift_period_66319_day (ite false (ite (= y_day ?x3228) ?x3232 ?x1473) ?x1473)))))))))))))))))))))
(assert
 (= y_shift_period_66319_epoch 6938))
(check-sat)
